
Gurobi 11.0.3 (win64) logging started Wed Sep  4 10:52:06 2024

Set parameter LogFile to value "C:\Users\ealvarezq\Desktop\E.Representative_days_based_on_Line_Benefits_OptModel\IEEE118_mod2_ByStages_nc30/openStarNet_IEEE118_mod2_ByStages_nc30.log"
Set parameter Method to value 2
Set parameter MIPFocus to value 1
Set parameter Presolve to value 2
Set parameter RINS to value 100
Set parameter MIPGap to value 0.01
Set parameter Threads to value 24
Set parameter TimeLimit to value 259200
Set parameter IterationLimit to value 760000000
Gurobi Optimizer version 11.0.3 build v11.0.3rc0 (win64 - Windows Server 2019.0 (17763.2))

CPU model: AMD Ryzen Threadripper PRO 3955WX 16-Cores, instruction set [SSE2|AVX|AVX2]
Thread count: 16 physical cores, 32 logical processors, using up to 24 threads

Optimize a model with 42633 rows, 31538 columns and 109762 nonzeros
Model fingerprint: 0xf8bdf99c
Variable types: 31504 continuous, 34 integer (34 binary)
Coefficient statistics:
  Matrix range     [3e-04, 9e+03]
  Objective range  [1e+00, 1e+00]
  Bounds range     [1e-04, 3e+00]
  RHS range        [2e-04, 3e+00]
Presolve removed 28794 rows and 14456 columns
Presolve time: 0.28s
Presolved: 13839 rows, 17082 columns, 50605 nonzeros
Variable types: 17048 continuous, 34 integer (34 binary)
Root relaxation presolved: 13839 rows, 17082 columns, 50605 nonzeros

Root barrier log...

Ordering time: 0.01s

Barrier statistics:
 Dense cols : 34
 AA' NZ     : 6.258e+04
 Factor NZ  : 2.429e+05 (roughly 14 MB of memory)
 Factor Ops : 5.072e+06 (less than 1 second per iteration)
 Threads    : 23

                  Objective                Residual
Iter       Primal          Dual         Primal    Dual     Compl     Time
   0   8.67619852e+06 -1.67485835e+09  1.55e+01 8.33e+03  1.80e+05     1s
   1   1.93959112e+06 -6.44291921e+08  3.22e+00 2.33e-08  3.61e+04     1s
   2   5.69115510e+05 -4.89759159e+08  7.64e-01 2.31e-08  1.62e+04     1s
   3   3.08078683e+05 -9.37459837e+07  2.50e-01 5.36e-09  2.94e+03     1s
   4   1.78658318e+05 -1.40138252e+07  1.64e-02 6.29e-10  3.59e+02     1s
   5   9.96750597e+04 -3.06183919e+06  1.31e-03 1.50e-10  7.74e+01     1s
   6   6.20688231e+04 -6.10894520e+05  4.30e-04 4.55e-11  1.64e+01     1s
   7   3.11926688e+04 -1.78382601e+05  1.28e-04 1.46e-11  5.12e+00     2s
   8   1.16293068e+04 -7.00160958e+04  2.84e-05 1.68e-11  1.99e+00     2s
   9   7.76831786e+03 -2.44926433e+04  1.58e-05 2.75e-11  7.88e-01     2s
  10   3.44152186e+03 -9.46942559e+03  5.04e-06 7.80e-12  3.15e-01     2s
  11   2.46329889e+03 -4.39796017e+03  3.00e-06 1.96e-11  1.68e-01     2s
  12   1.46715257e+03 -1.79791524e+03  1.10e-06 3.56e-11  7.97e-02     2s
  13   1.17615585e+03 -6.00928808e+02  6.26e-07 1.88e-11  4.34e-02     2s
  14   9.39983867e+02 -8.69529671e+01  2.81e-07 7.12e-12  2.51e-02     2s
  15   8.52607083e+02  4.57163518e+02  1.72e-07 1.52e-11  9.65e-03     2s
  16   7.96113304e+02  5.82897352e+02  1.06e-07 7.89e-12  5.21e-03     3s
  17   7.69710578e+02  6.22585642e+02  7.70e-08 7.21e-12  3.59e-03     3s
  18   7.43022790e+02  6.52582699e+02  4.81e-08 1.95e-11  2.21e-03     3s
  19   7.29021279e+02  6.64213026e+02  3.30e-08 4.39e-12  1.58e-03     3s
  20   7.15836122e+02  6.78626211e+02  1.92e-08 1.00e-11  9.08e-04     3s
  21   7.10012390e+02  6.84624558e+02  1.33e-08 1.33e-11  6.20e-04     3s
  22   7.02851750e+02  6.92463054e+02  6.12e-09 1.99e-11  2.54e-04     3s
  23   6.99195739e+02  6.94723783e+02  2.54e-09 1.74e-11  1.09e-04     3s
  24   6.97992650e+02  6.95579660e+02  1.39e-09 1.22e-11  5.89e-05     3s
  25   6.97641838e+02  6.95852600e+02  1.05e-09 1.71e-11  4.37e-05     3s
  26   6.97364251e+02  6.96203239e+02  7.81e-10 9.32e-12  2.83e-05     3s
  27   6.96753249e+02  6.96366726e+02  6.61e-10 6.59e-12  9.44e-06     3s
  28   6.96630808e+02  6.96464740e+02  5.54e-10 2.98e-11  4.05e-06     3s
  29   6.96543569e+02  6.96517987e+02  5.56e-09 1.77e-11  6.25e-07     4s
  30   6.96527546e+02  6.96526058e+02  1.64e-09 8.24e-12  3.63e-08     4s
  31   6.96526809e+02  6.96526808e+02  6.52e-11 1.64e-11  3.80e-11     4s

Barrier solved model in 31 iterations and 3.94 seconds (0.41 work units)
Optimal objective 6.96526809e+02


Root relaxation: objective 6.965268e+02, 1129 iterations, 3.69 seconds (0.31 work units)

    Nodes    |    Current Node    |     Objective Bounds      |     Work
 Expl Unexpl |  Obj  Depth IntInf | Incumbent    BestBd   Gap | It/Node Time

     0     0  696.52681    0   21          -  696.52681      -     -    4s
H    0     0                    5749.3414326  696.52681  87.9%     -    4s
H    0     0                    1935.6123974  696.52681  64.0%     -    4s
     0     0  707.37659    0   22 1935.61240  707.37659  63.5%     -    5s
     0     0  714.83408    0   21 1935.61240  714.83408  63.1%     -    5s
     0     0  714.83408    0   22 1935.61240  714.83408  63.1%     -    6s
H    0     0                    1895.5560643  714.83408  62.3%     -    6s
     0     0  724.28296    0   22 1895.55606  724.28296  61.8%     -    6s
     0     0  724.28296    0   20 1895.55606  724.28296  61.8%     -    7s
     0     0  724.28296    0   20 1895.55606  724.28296  61.8%     -    7s
     0     0  724.28296    0   21 1895.55606  724.28296  61.8%     -    7s
     0     0  724.28296    0   20 1895.55606  724.28296  61.8%     -    7s
     0     0  724.39433    0   20 1895.55606  724.39433  61.8%     -    7s
     0     0  724.39433    0   21 1895.55606  724.39433  61.8%     -    7s
     0     0  724.39433    0   21 1895.55606  724.39433  61.8%     -    7s
     0     0  724.39433    0   21 1895.55606  724.39433  61.8%     -    8s
H    0     0                     831.2284745  724.39433  12.9%     -    8s
H    0     0                     790.2775698  724.39433  8.34%     -   30s
     0     2  724.39433    0   21  790.27757  724.39433  8.34%     -   31s
    23     8     cutoff    5       790.27757  756.17462  4.32%   697   35s

Cutting planes:
  Gomory: 1
  Implied bound: 32
  MIR: 162

Explored 132 nodes (47343 simplex iterations) in 39.50 seconds (36.43 work units)
Thread count was 24 (of 32 available processors)

Solution count 5: 790.278 831.228 1895.56 ... 5749.34

Optimal solution found (tolerance 1.00e-02)
Best objective 7.902775698484e+02, best bound 7.829015966547e+02, gap 0.9333%

Gurobi 11.0.3 (win64) logging started Wed Sep  4 10:52:52 2024

Set parameter LogFile to value "C:\Users\ealvarezq\Desktop\E.Representative_days_based_on_Line_Benefits_OptModel\IEEE118_mod2_ByStages_nc30/openStarNet_IEEE118_mod2_ByStages_nc30.log"
Set parameter Method to value 2
Set parameter MIPFocus to value 1
Set parameter Presolve to value 2
Set parameter RINS to value 100
Set parameter MIPGap to value 0.01
Set parameter Threads to value 24
Set parameter TimeLimit to value 259200
Set parameter IterationLimit to value 760000000
Gurobi Optimizer version 11.0.3 build v11.0.3rc0 (win64 - Windows Server 2019.0 (17763.2))

CPU model: AMD Ryzen Threadripper PRO 3955WX 16-Cores, instruction set [SSE2|AVX|AVX2]
Thread count: 16 physical cores, 32 logical processors, using up to 24 threads

Optimize a model with 42633 rows, 31504 columns and 105648 nonzeros
Model fingerprint: 0x1fbe050e
Coefficient statistics:
  Matrix range     [3e-04, 9e+03]
  Objective range  [1e+00, 1e+00]
  Bounds range     [1e-04, 3e+00]
  RHS range        [2e-04, 2e+02]
Presolve removed 31807 rows and 13895 columns
Presolve time: 0.07s
Presolved: 10826 rows, 17761 columns, 42485 nonzeros

Ordering time: 0.00s

Barrier statistics:
 AA' NZ     : 3.556e+04
 Factor NZ  : 1.421e+05 (roughly 13 MB of memory)
 Factor Ops : 2.052e+06 (less than 1 second per iteration)
 Threads    : 24

                  Objective                Residual
Iter       Primal          Dual         Primal    Dual     Compl     Time
   0   1.42031417e+07 -1.04870980e+09  8.69e+01 3.93e+02  1.03e+05     1s
   1   1.44541199e+06 -2.75305199e+08  7.92e+00 1.09e-11  1.23e+04     1s
   2   3.42140405e+05 -5.02527581e+07  1.29e+00 9.09e-12  1.83e+03     1s
   3   1.34946347e+05 -6.45697512e+06  1.81e-02 7.28e-12  1.73e+02     1s
   4   6.58478282e+04 -7.35157435e+05  1.72e-11 6.37e-12  2.06e+01     1s
   5   3.36534413e+04 -2.23215812e+05  1.38e-11 2.16e-12  6.62e+00     1s
   6   1.69242761e+04 -6.78404720e+04  7.44e-12 1.38e-12  2.18e+00     1s
   7   8.67440897e+03 -2.69930444e+04  4.41e-12 1.55e-12  9.19e-01     1s
   8   4.77118764e+03 -1.15562820e+04  5.14e-12 2.03e-12  4.21e-01     2s
   9   2.30615243e+03 -6.14823658e+03  1.02e-11 1.55e-12  2.18e-01     2s
  10   1.66414259e+03 -1.06867281e+03  5.65e-11 1.81e-12  7.04e-02     2s
  11   1.19691305e+03  4.22332848e+01  7.52e-11 1.84e-12  2.98e-02     2s
  12   1.04121687e+03  3.87526573e+02  1.05e-10 2.20e-12  1.68e-02     3s
  13   9.75428632e+02  5.50173474e+02  7.66e-11 9.48e-13  1.10e-02     3s
  14   9.08708554e+02  6.54020072e+02  1.60e-10 9.41e-13  6.56e-03     3s
  15   8.70028609e+02  6.90217466e+02  8.21e-11 1.71e-12  4.63e-03     3s
  16   8.42756780e+02  7.53898867e+02  5.83e-11 1.26e-12  2.29e-03     3s
  17   8.20005873e+02  7.66862978e+02  1.92e-10 1.48e-12  1.37e-03     3s
  18   8.08926449e+02  7.78503079e+02  4.24e-10 2.23e-12  7.84e-04     3s
  19   8.00829249e+02  7.84610213e+02  1.18e-10 1.34e-12  4.18e-04     4s
  20   7.95523952e+02  7.87580816e+02  2.18e-10 1.53e-12  2.05e-04     4s
  21   7.91625041e+02  7.89475790e+02  8.58e-11 1.74e-12  5.54e-05     4s
  22   7.91027457e+02  7.89858759e+02  4.90e-11 1.72e-12  3.01e-05     4s
  23   7.90585831e+02  7.90056855e+02  4.77e-10 1.39e-12  1.36e-05     4s
  24   7.90418950e+02  7.90180448e+02  8.53e-10 1.50e-12  6.15e-06     4s
  25   7.90317253e+02  7.90239833e+02  3.47e-10 1.28e-12  2.00e-06     4s
  26   7.90289083e+02  7.90268119e+02  1.14e-10 1.90e-12  5.40e-07     4s
  27   7.90277638e+02  7.90277050e+02  2.38e-10 1.62e-12  1.52e-08     4s
  28   7.90277581e+02  7.90277561e+02  2.16e-10 1.67e-12  5.22e-10     4s
  29   7.90277570e+02  7.90277570e+02  8.08e-11 1.49e-12  7.53e-13     4s

Barrier solved model in 29 iterations and 3.66 seconds (0.20 work units)
Optimal objective 7.90277570e+02

Crossover log...

    3093 DPushes remaining with DInf 0.0000000e+00                 4s
       0 DPushes remaining with DInf 0.0000000e+00                 4s

     114 PPushes remaining with PInf 0.0000000e+00                 4s
       0 PPushes remaining with PInf 0.0000000e+00                 4s

  Push phase complete: Pinf 0.0000000e+00, Dinf 2.2166506e-12      4s

Iteration    Objective       Primal Inf.    Dual Inf.      Time
    1172    7.9027757e+02   0.000000e+00   0.000000e+00      4s

Solved in 1172 iterations and 3.75 seconds (0.24 work units)
Optimal objective  7.902775698e+02
